(set-option :produce-models true)
(set-logic QF_LRA)
(set-info :notes | Strip-packing problem.|)
(declare-fun x0 () Real)
(declare-fun y0 () Real)
(declare-fun x1 () Real)
(declare-fun y1 () Real)
(declare-fun x2 () Real)
(declare-fun y2 () Real)
(declare-fun x3 () Real)
(declare-fun y3 () Real)
(declare-fun x4 () Real)
(declare-fun y4 () Real)
(declare-fun x5 () Real)
(declare-fun y5 () Real)
(declare-fun x6 () Real)
(declare-fun y6 () Real)
(declare-fun x7 () Real)
(declare-fun y7 () Real)
(declare-fun x8 () Real)
(declare-fun y8 () Real)
(declare-fun z () Real)
(declare-fun c () Real)
(assert (and (= c z) (and (>= x0 0) 
(and (>= y0 0) 
(and (>= x1 0) 
(and (>= y1 0) 
(and (>= x2 0) 
(and (>= y2 0) 
(and (>= x3 0) 
(and (>= y3 0) 
(and (>= x4 0) 
(and (>= y4 0) 
(and (>= x5 0) 
(and (>= y5 0) 
(and (>= x6 0) 
(and (>= y6 0) 
(and (>= x7 0) 
(and (>= y7 0) 
(and (>= x8 0) 
(and (>= y8 0) 
(and (>= z 0) 
(and (>= c 0) 
(and (<= (+ x0 0.2377199175) z) 
(and (<= 0.9978939466 y0) 
(and (<= y0 1.5) 
(and (<= x0 (- 1.8846506246 0.2377199175)) 
(and (>= x0 0) 
(and (<= (+ x1 0.9061404132) z) 
(and (<= 0.9716525235 y1) 
(and (<= y1 1.5) 
(and (<= x1 (- 1.8846506246 0.9061404132)) 
(and (>= x1 0) 
(and (<= (+ x2 0.236225381) z) 
(and (<= 0.7449309743 y2) 
(and (<= y2 1.5) 
(and (<= x2 (- 1.8846506246 0.236225381)) 
(and (>= x2 0) 
(and (<= (+ x3 0.1642348961) z) 
(and (<= 0.5672329321 y3) 
(and (<= y3 1.5) 
(and (<= x3 (- 1.8846506246 0.1642348961)) 
(and (>= x3 0) 
(and (<= (+ x4 0.5045649129) z) 
(and (<= 0.5505089352 y4) 
(and (<= y4 1.5) 
(and (<= x4 (- 1.8846506246 0.5045649129)) 
(and (>= x4 0) 
(and (<= (+ x5 0.5546128059) z) 
(and (<= 0.2784599677 y5) 
(and (<= y5 1.5) 
(and (<= x5 (- 1.8846506246 0.5546128059)) 
(and (>= x5 0) 
(and (<= (+ x6 0.3484070273) z) 
(and (<= 0.2112766489 y6) 
(and (<= y6 1.5) 
(and (<= x6 (- 1.8846506246 0.3484070273)) 
(and (>= x6 0) 
(and (<= (+ x7 0.8656357559) z) 
(and (<= 0.1525662631 y7) 
(and (<= y7 1.5) 
(and (<= x7 (- 1.8846506246 0.8656357559)) 
(and (>= x7 0) 
(and (<= (+ x8 0.7712377787) z) 
(and (<= 0.0547293044 y8) 
(and (<= y8 1.5) 
(and (<= x8 (- 1.8846506246 0.7712377787)) 
(and (>= x8 0) 
(and (<= c 1.8846506246) 
(and (or (<= (+ x0 0.2377199175) x1) (or (<= (+ x1 0.9061404132) x0) (or (>= (- y0 0.9978939466) y1) (or (>= (- y1 0.9716525235) y0))))) 
(and (or (<= (+ x0 0.2377199175) x2) (or (<= (+ x2 0.236225381) x0) (or (>= (- y0 0.9978939466) y2) (or (>= (- y2 0.7449309743) y0))))) 
(and (or (<= (+ x0 0.2377199175) x3) (or (<= (+ x3 0.1642348961) x0) (or (>= (- y0 0.9978939466) y3) (or (>= (- y3 0.5672329321) y0))))) 
(and (or (<= (+ x0 0.2377199175) x4) (or (<= (+ x4 0.5045649129) x0) (or (>= (- y0 0.9978939466) y4) (or (>= (- y4 0.5505089352) y0))))) 
(and (or (<= (+ x0 0.2377199175) x5) (or (<= (+ x5 0.5546128059) x0) (or (>= (- y0 0.9978939466) y5) (or (>= (- y5 0.2784599677) y0))))) 
(and (or (<= (+ x0 0.2377199175) x6) (or (<= (+ x6 0.3484070273) x0) (or (>= (- y0 0.9978939466) y6) (or (>= (- y6 0.2112766489) y0))))) 
(and (or (<= (+ x0 0.2377199175) x7) (or (<= (+ x7 0.8656357559) x0) (or (>= (- y0 0.9978939466) y7) (or (>= (- y7 0.1525662631) y0))))) 
(and (or (<= (+ x0 0.2377199175) x8) (or (<= (+ x8 0.7712377787) x0) (or (>= (- y0 0.9978939466) y8) (or (>= (- y8 0.0547293044) y0))))) 
(and (or (<= (+ x1 0.9061404132) x2) (or (<= (+ x2 0.236225381) x1) (or (>= (- y1 0.9716525235) y2) (or (>= (- y2 0.7449309743) y1))))) 
(and (or (<= (+ x1 0.9061404132) x3) (or (<= (+ x3 0.1642348961) x1) (or (>= (- y1 0.9716525235) y3) (or (>= (- y3 0.5672329321) y1))))) 
(and (or (<= (+ x1 0.9061404132) x4) (or (<= (+ x4 0.5045649129) x1) (or (>= (- y1 0.9716525235) y4) (or (>= (- y4 0.5505089352) y1))))) 
(and (or (<= (+ x1 0.9061404132) x5) (or (<= (+ x5 0.5546128059) x1) (or (>= (- y1 0.9716525235) y5) (or (>= (- y5 0.2784599677) y1))))) 
(and (or (<= (+ x1 0.9061404132) x6) (or (<= (+ x6 0.3484070273) x1) (or (>= (- y1 0.9716525235) y6) (or (>= (- y6 0.2112766489) y1))))) 
(and (or (<= (+ x1 0.9061404132) x7) (or (<= (+ x7 0.8656357559) x1) (or (>= (- y1 0.9716525235) y7) (or (>= (- y7 0.1525662631) y1))))) 
(and (or (<= (+ x1 0.9061404132) x8) (or (<= (+ x8 0.7712377787) x1) (or (>= (- y1 0.9716525235) y8) (or (>= (- y8 0.0547293044) y1))))) 
(and (or (<= (+ x2 0.236225381) x3) (or (<= (+ x3 0.1642348961) x2) (or (>= (- y2 0.7449309743) y3) (or (>= (- y3 0.5672329321) y2))))) 
(and (or (<= (+ x2 0.236225381) x4) (or (<= (+ x4 0.5045649129) x2) (or (>= (- y2 0.7449309743) y4) (or (>= (- y4 0.5505089352) y2))))) 
(and (or (<= (+ x2 0.236225381) x5) (or (<= (+ x5 0.5546128059) x2) (or (>= (- y2 0.7449309743) y5) (or (>= (- y5 0.2784599677) y2))))) 
(and (or (<= (+ x2 0.236225381) x6) (or (<= (+ x6 0.3484070273) x2) (or (>= (- y2 0.7449309743) y6) (or (>= (- y6 0.2112766489) y2))))) 
(and (or (<= (+ x2 0.236225381) x7) (or (<= (+ x7 0.8656357559) x2) (or (>= (- y2 0.7449309743) y7) (or (>= (- y7 0.1525662631) y2))))) 
(and (or (<= (+ x2 0.236225381) x8) (or (<= (+ x8 0.7712377787) x2) (or (>= (- y2 0.7449309743) y8) (or (>= (- y8 0.0547293044) y2))))) 
(and (or (<= (+ x3 0.1642348961) x4) (or (<= (+ x4 0.5045649129) x3) (or (>= (- y3 0.5672329321) y4) (or (>= (- y4 0.5505089352) y3))))) 
(and (or (<= (+ x3 0.1642348961) x5) (or (<= (+ x5 0.5546128059) x3) (or (>= (- y3 0.5672329321) y5) (or (>= (- y5 0.2784599677) y3))))) 
(and (or (<= (+ x3 0.1642348961) x6) (or (<= (+ x6 0.3484070273) x3) (or (>= (- y3 0.5672329321) y6) (or (>= (- y6 0.2112766489) y3))))) 
(and (or (<= (+ x3 0.1642348961) x7) (or (<= (+ x7 0.8656357559) x3) (or (>= (- y3 0.5672329321) y7) (or (>= (- y7 0.1525662631) y3))))) 
(and (or (<= (+ x3 0.1642348961) x8) (or (<= (+ x8 0.7712377787) x3) (or (>= (- y3 0.5672329321) y8) (or (>= (- y8 0.0547293044) y3))))) 
(and (or (<= (+ x4 0.5045649129) x5) (or (<= (+ x5 0.5546128059) x4) (or (>= (- y4 0.5505089352) y5) (or (>= (- y5 0.2784599677) y4))))) 
(and (or (<= (+ x4 0.5045649129) x6) (or (<= (+ x6 0.3484070273) x4) (or (>= (- y4 0.5505089352) y6) (or (>= (- y6 0.2112766489) y4))))) 
(and (or (<= (+ x4 0.5045649129) x7) (or (<= (+ x7 0.8656357559) x4) (or (>= (- y4 0.5505089352) y7) (or (>= (- y7 0.1525662631) y4))))) 
(and (or (<= (+ x4 0.5045649129) x8) (or (<= (+ x8 0.7712377787) x4) (or (>= (- y4 0.5505089352) y8) (or (>= (- y8 0.0547293044) y4))))) 
(and (or (<= (+ x5 0.5546128059) x6) (or (<= (+ x6 0.3484070273) x5) (or (>= (- y5 0.2784599677) y6) (or (>= (- y6 0.2112766489) y5))))) 
(and (or (<= (+ x5 0.5546128059) x7) (or (<= (+ x7 0.8656357559) x5) (or (>= (- y5 0.2784599677) y7) (or (>= (- y7 0.1525662631) y5))))) 
(and (or (<= (+ x5 0.5546128059) x8) (or (<= (+ x8 0.7712377787) x5) (or (>= (- y5 0.2784599677) y8) (or (>= (- y8 0.0547293044) y5))))) 
(and (or (<= (+ x6 0.3484070273) x7) (or (<= (+ x7 0.8656357559) x6) (or (>= (- y6 0.2112766489) y7) (or (>= (- y7 0.1525662631) y6))))) 
(and (or (<= (+ x6 0.3484070273) x8) (or (<= (+ x8 0.7712377787) x6) (or (>= (- y6 0.2112766489) y8) (or (>= (- y8 0.0547293044) y6))))) 
(and (or (<= (+ x7 0.8656357559) x8) (or (<= (+ x8 0.7712377787) x7) (or (>= (- y7 0.1525662631) y8) (or (>= (- y8 0.0547293044) y7))))) ))))))))))))))))))))))))))))))))))))))))))))))))))))))))))))))))))))))))))))))))))))))))))))))))))))))))
(minimize c)
(check-sat)
(get-objectives)
(exit)
